NAME: instance_1043
TYPE: TSP
DIMENSION: 20
EDGE_WEIGHT_TYPE: EUC_2D
NODE_COORD_SECTION
0 44.54 22.28
1 55.02 19.78
2 58.92 74.48
3 15.40 77.39
4 67.26 96.04
5 67.92 59.64
6 55.39 89.95
7 87.87 72.24
8 4.98 51.98
9 35.18 17.37
10 95.63 23.85
11 36.32 35.01
12 41.53 92.84
13 0.26 26.55
14 7.13 13.55
15 82.80 19.42
16 68.18 7.56
17 18.87 74.92
18 35.73 19.28
19 41.85 49.42
EOF
